TOUR_SECTION
1
126
176
63
119
93
83
33
70
173
95
24
200
194
23
187
18
55
29
128
76
17
47
107
168
101
172
149
120
58
99
43
84
87
12
195
103
100
102
80
81
162
118
59
201
160
66
180
7
145
189
89
171
125
27
82
199
117
30
131
127
178
20
2
157
72
137
34
97
8
4
163
105
112
60
151
135
129
26
98
61
13
45
53
146
54
193
111
185
73
57
11
115
19
69
142
144
156
14
154
196
108
141
71
133
31
184
46
123
188
152
183
96
143
38
148
192
139
132
116
3
174
136
25
86
6
197
181
159
15
166
91
121
114
179
130
35
190
198
40
68
85
5
64
164
104
9
88
79
150
186
170
65
140
122
39
110
51
169
155
49
36
113
74
138
177
106
94
28
16
191
75
22
124
167
165
78
21
92
158
109
175
50
182
56
37
41
77
32
44
62
42
153
67
10
48
134
161
90
52
147
-1
EOF